10 6 15 4 14 18 11 7 8 5 9 19 1 17 13 12 0 2 16 3  
10 6 15 4 14 18 11 7 9 8 19 12 17 13 16 5 0 1 2 3  
10 6 15 4 18 14 11 7 8 5 9 19 2 12 0 1 17 13 16 3  
10 6 15 4 18 14 11 7 8 5 9 19 2 12 0 1 17 13 16 3  
10 6 15 4 18 14 11 7 9 8 19 0 12 2 17 1 5 3 13 16  
10 6 15 4 11 14 5 18 9 19 13 12 0 8 17 1 7 2 16 3  
10 6 15 4 18 14 11 7 8 5 9 19 13 12 0 2 16 17 1 3  
10 6 15 4 18 14 11 7 8 5 9 19 2 12 0 1 17 13 16 3  
10 6 15 4 18 14 11 7 9 8 19 16 0 12 17 1 5 3 2 13  
10 6 15 4 18 14 11 7 9 8 19 0 12 5 13 2 17 1 16 3  
10 6 15 4 18 14 11 7 8 5 9 19 2 12 0 1 17 13 16 3  
10 6 15 4 11 14 5 18 9 19 13 12 0 8 17 1 7 2 16 3  
10 6 15 4 18 14 11 7 8 5 9 19 2 12 0 1 17 13 16 3  
10 6 15 4 18 14 11 7 8 5 9 19 16 0 13 12 17 2 3 1  
10 6 15 4 18 14 11 5 9 8 19 16 0 13 12 17 7 3 1 2  
10 6 15 4 18 14 11 7 8 5 9 19 13 12 17 1 0 2 16 3  
10 6 15 4 18 14 11 7 9 8 19 12 0 13 16 5 2 17 1 3  
10 6 15 4 18 14 11 7 9 8 19 16 0 12 17 1 5 13 2 3  
10 6 15 4 18 14 11 5 9 19 8 16 0 13 12 17 7 3 1 2  
10 6 15 4 18 14 11 5 7 2 9 19 1 0 13 12 17 16 3 8  
10 6 15 4 18 14 11 7 8 5 9 19 16 13 12 17 1 0 2 3  
10 6 15 4 18 14 11 7 8 5 9 19 13 12 0 2 17 16 1 3  
10 6 15 4 18 14 7 8 11 5 9 19 13 12 0 2 17 16 1 3  
10 6 15 4 18 14 11 7 9 8 19 12 17 13 16 5 2 0 1 3  
10 6 15 4 18 14 11 7 8 5 9 19 13 12 0 2 17 1 16 3  
10 6 15 4 18 14 11 5 9 8 19 16 0 13 12 17 1 7 3 2  
10 6 15 4 18 14 7 8 11 5 9 19 13 12 0 2 17 16 1 3  
10 6 15 4 8 14 11 5 9 18 19 16 0 13 12 17 1 7 3 2  
10 6 15 4 18 14 7 8 11 5 9 19 13 12 0 2 17 16 1 3  
10 6 15 4 18 14 11 7 9 8 19 12 17 13 16 5 2 0 1 3  
10 6 15 4 14 18 7 11 8 5 9 19 2 13 12 0 1 17 16 3  
10 6 15 4 18 14 11 7 9 8 19 16 0 12 17 1 5 3 2 13  
10 6 15 4 18 14 11 7 9 8 19 16 0 1 17 12 5 13 2 3  
10 6 15 4 18 14 11 7 9 8 19 12 17 13 16 5 0 1 2 3  
10 6 15 4 18 14 11 7 9 8 19 16 0 12 17 1 5 3 2 13  
